(set-info :smt-lib-version 2.6)
(set-logic QF_NRA)
(set-info :source |
Generated by: Ali K. Uncu, Matthew England, and James H. Davenport
Generated on: 2022-01-05

Generator: SUMCracker-ProveInequality function by Manuel Kauers ("https://www3.risc.jku.at/research/combinat/software/ergosum/RISC/SumCracker.html")
Translated to SMT-Lib by Maple SMTLIB package.

Application: Automated proof of (7.36) in 
D.S. Mitrinovic, Elementary Inequalities, P. Noordhoff ltd - Groningen, (1964)
("https://www.isinj.com/mt-usamo/Elementary%20Inequalities%20-%20Mitrinovic,%20et.%20al.%20(1964,%20Noordhoff).pdf")

|)
(set-info :license "https://creativecommons.org/licenses/by/4.0/")
(set-info :status unsat)
(set-info :category "industrial")

(declare-fun V1 () Real)
(declare-fun V2 () Real)
(declare-fun x () Real)
(assert (and (<= 0 x) (<= x 1) (<= 0 V1) (<= 0 (+ 1 V1)) (<= (+ (* (* x V1 V2) (- 2)) (* (* V1 V2) 2)) (+ (* (* V2 V2) (- 1)) 1)) (< (+ (* (* (* x x) (* V2 V2)) (- 1)) 1) (+ (* (* (* x x) V1 V2) (- 2)) (* (* x V1 V2) 2) (* (* (* x x) V2) (- 2)) (* (* x V2) 2)))))
(check-sat)
(exit)






















